nbNodes = 22;
nbVehi = 5;
nbServi = 5;

e = 
 [    0,  197,  203,  276,  317,  197,  103,  392,  290,   92,   57,  447,  189,  207,  181,  218,   29,  325,  471,  365,  253,    0,];

l = 
 [ 480, 282, 314, 342, 378, 302, 220, 497, 394, 186, 172, 565, 249, 305, 297, 279, 105, 434, 551, 448, 324, 480];

a = 
 [|  1,  1,  1,  1,  1,
 |  1,  1,  1,  1,  1,
 |  1,  1,  1,  0,  1,
 |  1,  1,  1,  1,  1,
 |  1,  1,  1,  1,  1,
 |];

p = array3d(1..nbNodes,1..nbVehi,1..nbServi,
[  0,  0,  0,  0,  0,	  0,  0,  0,  0,  0,	  0,  0,  0,  0,  0,	  0,  0,  0,  0,  0,	  0,  0,  0,  0,  0,	
 15, 10, 16, 15, 15,	 21, 19, 13, 18, 11,	 13, 19, 20, 12, 11,	 15, 12, 10, 18, 11,	 18, 19, 21, 12, 11,	
 18, 10, 20, 15, 16,	 20, 12, 20, 14, 17,	 18, 17, 14, 21, 17,	 16, 16, 14, 18, 10,	 15, 15, 12, 20, 12,	
 26, 13, 22, 11, 25,	 23, 21, 25, 17, 10,	 12, 22, 16, 22, 26,	 18, 14, 23, 15, 18,	 17, 17, 17, 24, 22,	
 20, 16, 18, 16, 13,	 12, 20, 15, 11, 14,	 12, 21, 22, 11, 20,	 22, 13, 14, 21, 14,	 18, 18, 20, 10, 19,	
 17, 20, 13, 15, 12,	 20, 14, 13, 21, 24,	 16, 12, 25, 21, 10,	 17, 19, 13, 24, 10,	 14, 23, 15, 17, 24,	
 17, 20, 16, 14, 10,	 17, 17, 10, 20, 18,	 18, 21, 11, 11, 22,	 13, 11, 23, 16, 11,	 15, 21, 20, 22, 19,	
 14, 13, 16, 11, 20,	 18, 14, 18, 18, 16,	 12, 13, 21, 13, 12,	 20, 11, 17, 15, 13,	 13, 16, 20, 20, 20,	
 19, 16, 15, 16, 14,	 22, 12, 21, 20, 18,	 13, 22, 16, 18, 14,	 17, 18, 13, 10, 17,	 23, 12, 11, 14, 13,	
 14, 14, 13, 16, 16,	 11, 10, 18, 12, 12,	 15, 18, 10, 10, 18,	 10, 12, 14, 15, 10,	 10, 18, 10, 10, 20,	
 18, 15, 13, 19, 16,	 10, 15, 12, 14, 21,	 18, 15, 13, 19, 10,	 15, 12, 18, 16, 16,	 15, 20, 18, 11, 13,	
 18, 13, 10, 20, 22,	 13, 17, 13, 19, 18,	 16, 19, 14, 15, 24,	 20, 16, 19, 22, 14,	 10, 21, 20, 12, 10,	
 15, 18, 18, 16, 12,	 13, 12, 18, 17, 17,	 16, 11, 18, 19, 12,	 20, 21, 21, 19, 12,	 19, 10, 12, 10, 16,	
 11, 19, 13, 10, 16,	 15, 10, 25, 15, 10,	 27, 12, 16, 21, 11,	 12, 27, 16, 18, 12,	 22, 27, 11, 10, 22,	
 12, 19, 14, 18, 11,	 20, 14, 14, 10, 20,	 20, 13, 20, 15, 12,	 18, 12, 18, 19, 17,	 12, 19, 16, 10, 19,	
 15, 11, 20, 22, 13,	 11, 16, 22, 18, 15,	 20, 17, 20, 10, 20,	 22, 13, 17, 18, 20,	 11, 11, 19, 17, 19,	
 20, 12, 13, 13, 14,	 19, 18, 15, 16, 20,	 20, 19, 15, 19, 17,	 20, 16, 13, 19, 18,	 12, 21, 21, 19, 16,	
 12, 13, 21, 16, 10,	 11, 19, 14, 13, 16,	 16, 17, 21, 17, 18,	 18, 23, 13, 15, 17,	 18, 16, 16, 15, 15,	
 17, 18, 22, 23, 21,	 16, 19, 18, 14, 23,	 11, 18, 17, 18, 19,	 22, 13, 16, 16, 24,	 23, 10, 11, 21, 17,	
 13, 21, 16, 13, 14,	 15, 15, 21, 10, 16,	 15, 17, 16, 15, 16,	 12, 17, 18, 13, 13,	 20, 15, 11, 15, 15,	
 14, 11, 10, 17, 11,	 17, 11, 22, 18, 17,	 21, 11, 15, 13, 21,	 18, 18, 19, 12, 12,	 22, 13, 18, 16, 18,	
  0,  0,  0,  0,  0,	  0,  0,  0,  0,  0,	  0,  0,  0,  0,  0,	  0,  0,  0,  0,  0,	  0,  0,  0,  0,  0,	
]);

rs = 
[|  true,  true,  true,  true,  true,	  	
|  false,  false,  false,  true,  false,	  
|  false,  false,  false,  false,  true,	  
|  false,  false,  false,  true,  false,	  	
|  false,  false,  false,  false,  true,	 	
|  false,  false,  false,  true,  false,	 	
|  true,  false,  false,  false,  false,	 	
|  false,  false,  false,  true,  false,	 	
|  false,  false,  false,  false,  true,	 	
|  false,  false,  false,  true,  false,	
|  false,  false,  false,  true,  false,	 
|  true,  false,  false,  false,  false,	  
|  false,  false,  true,  false,  false,	  	
|  false,  false,  false,  true,  false,	 	
|  false,  false,  false,  true,  false,	 	
|  false,  false,  false,  false,  true,	  	
|  true,  false,  false,  false,  false,	  	
|  false,  false,  false,  true,  false,	  	
|  false,  false,  true,  false,  false,	 	
|  false,  false,  false,  false,  true,	  	
|  false,  false,  false,  false,  true,	  	
|  true,  true,  true,  true,  true,	  
|];

d=[|0, 22, 16, 8, 28, 17, 17, 21, 28, 25, 4, 13, 12, 28, 10, 13, 20, 22, 21, 26, 3, 0, 
|22, 0, 35, 21, 7, 39, 23, 27, 50, 25, 26, 15, 31, 5, 12, 36, 30, 35, 10, 45, 23, 22, 
|16, 35, 0, 23, 42, 19, 32, 18, 18, 40, 13, 29, 5, 41, 24, 11, 34, 12, 30, 30, 13, 16, 
|8, 21, 23, 0, 25, 18, 8, 28, 32, 17, 10, 7, 20, 26, 12, 17, 13, 30, 24, 23, 11, 8, 
|28, 7, 42, 25, 0, 43, 24, 34, 56, 25, 32, 18, 37, 5, 18, 41, 31, 42, 16, 48, 29, 28, 
|17, 39, 19, 18, 43, 0, 23, 35, 16, 30, 13, 25, 20, 44, 27, 7, 21, 31, 39, 11, 18, 17, 
|17, 23, 32, 8, 24, 23, 0, 36, 38, 8, 18, 8, 29, 27, 17, 25, 7, 39, 28, 24, 20, 17, 
|21, 27, 18, 28, 34, 35, 36, 0, 37, 43, 23, 29, 15, 31, 20, 28, 41, 10, 18, 45, 18, 21, 
|28, 50, 18, 32, 56, 16, 38, 37, 0, 46, 23, 39, 22, 56, 38, 14, 37, 29, 47, 23, 26, 28, 
|25, 25, 40, 17, 25, 30, 8, 43, 46, 0, 26, 14, 37, 29, 24, 33, 10, 47, 33, 29, 28, 25, 
|4, 26, 13, 10, 32, 13, 18, 23, 23, 26, 0, 16, 11, 32, 14, 9, 20, 21, 25, 23, 5, 4, 
|13, 15, 29, 7, 18, 25, 8, 29, 39, 14, 16, 0, 25, 20, 10, 24, 15, 33, 20, 30, 16, 13, 
|12, 31, 5, 20, 37, 20, 29, 15, 22, 37, 11, 25, 0, 36, 19, 13, 32, 10, 25, 31, 9, 12, 
|28, 5, 41, 26, 5, 44, 27, 31, 56, 29, 32, 20, 36, 0, 17, 41, 34, 39, 13, 50, 29, 28, 
|10, 12, 24, 12, 18, 27, 17, 20, 38, 24, 14, 10, 19, 17, 0, 24, 24, 25, 12, 35, 11, 10, 
|13, 36, 11, 17, 41, 7, 25, 28, 14, 33, 9, 24, 13, 41, 24, 0, 24, 23, 34, 18, 13, 13, 
|20, 30, 34, 13, 31, 21, 7, 41, 37, 10, 20, 15, 32, 34, 24, 24, 0, 42, 35, 19, 24, 20, 
|22, 35, 12, 30, 42, 31, 39, 10, 29, 47, 21, 33, 10, 39, 25, 23, 42, 0, 26, 42, 18, 22, 
|21, 10, 30, 24, 16, 39, 28, 18, 47, 33, 25, 20, 25, 13, 12, 34, 35, 26, 0, 47, 21, 21, 
|26, 45, 30, 23, 48, 11, 24, 45, 23, 29, 23, 30, 31, 50, 35, 18, 19, 42, 47, 0, 28, 26, 
|3, 23, 13, 11, 29, 18, 20, 18, 26, 28, 5, 16, 9, 29, 11, 13, 24, 18, 21, 28, 0, 3, 
|0, 22, 16, 8, 28, 17, 17, 21, 28, 25, 4, 13, 12, 28, 10, 13, 20, 22, 21, 26, 3, 0, 
|];
